language ESSENCE' 1.0
letting TWorkers be [[1, 1, 1, 1, 1, 1, 1, 1, 1, 1, 1, 1, 1, 1, 1, 1, 1, 1, 1, 1, 1, 1, 1, 1, 1], 
[1, 0, 1, 1, 1, 0, 1, 1, 1, 1, 0, 0, 1, 1, 0, 0, 1, 0, 0, 1, 1, 0, 1, 1, 1]]
letting objective be 35
letting s be [0, 4, 9, 0, 4, 13, 6, 11, 16, 16, 17, 20, 23, 13, 23, 27, 18, 31, 32, 27, 21, 24, 25, 33, 30]
letting w be [[true, true, true, false, false, true, false, false, false, true, true, true, false, false, true, true, false, true, true, false, false, true, true, true, false], 
[false, false, false, true, true, false, true, true, true, false, false, false, true, true, false, false, true, false, false, true, true, false, false, false, true]]
